c This is the cnf corresponding to the example at PerezMorago15 article
c f1 is a core feature - included in every derivative
c f2 is a dead feature - missing in every derivative
p cnf 6 9
1 2 3 4 5 6 0
-2 3 0
1 -3 0
3 -4 0
3 -5 0
3 -6 0
-1 -2 0
-4 -5 0
-4 -6 0
